problem_generation/data/GISP/train/er_n=63_m=1151_p=0.60_SET2_setparam=100.00_alpha=0.50_620.lp
maximize
OBJ:100x0 + 100x1 + 100x2 + 100x3 + 100x4 + 100x5 + 100x6 + 100x7 + 100x8 + 100x9 + 100x10 + 100x11 + 100x12 + 100x13 + 100x14 + 100x15 + 100x16 + 100x17 + 100x18 + 100x19 + 100x20 + 100x21 + 100x22 + 100x23 + 100x24 + 100x25 + 100x26 + 100x27 + 100x28 + 100x29 + 100x30 + 100x31 + 100x32 + 100x33 + 100x34 + 100x35 + 100x36 + 100x37 + 100x38 + 100x39 + 100x40 + 100x41 + 100x42 + 100x43 + 100x44 + 100x45 + 100x46 + 100x47 + 100x48 + 100x49 + 100x50 + 100x51 + 100x52 + 100x53 + 100x54 + 100x55 + 100x56 + 100x57 + 100x58 + 100x59 + 100x60 + 100x61 + 100x62 - y36_53 - y7_26 - y36_62 - y15_39 - y17_58 - y18_35 - y29_32 - y18_44 - y21_37 - y0_14 - y6_48 - y40_50 - y6_57 - y29_59 - y33_38 - y41_51 - y2_32 - y25_34 - y33_47 - y10_54 - y2_50 - y22_28 - y25_61 - y43_60 - y3_42 - y47_48 - y7_21 - y36_57 - y9_49 - y6_34 - y29_36 - y21_32 - y32_55 - y35_60 - y3_37 - y16_56 - y55_56 - y47_61 - y17_57 - y6_29 - y29_31 - y9_62 - y40_49 - y6_56 - y10_26 - y54_60 - y2_31 - y25_33 - y2_40 - y32_41 - y2_49 - y24_46 - y14_32 - y1_62 - y16_60 - y28_34 - y9_30 - y36_56 - y47_56 - y28_52 - y9_48 - y5_59 - y17_61 - y28_61 - y9_57 - y40_44 - y6_51 - y39_48 - y10_21 - y10_30 - y25_28 - y10_39 - y23_58 - y14_18 - y32_54 - y13_50 - y17_20 - y28_29 - y17_38 - y36_51 - y9_43 - y17_56 - y6_28 - y9_61 - y21_26 - y27_60 - y10_25 - y54_59 - y2_30 - y12_62 - y4_58 - y1_34 - y16_32 - y24_45 - y32_58 - y13_54 - y36_37 - y17_42 - y28_42 - y5_49 - y9_47 - y6_23 - y50_57 - y42_53 - y42_62 - y0_56 - y20_34 - y2_7 - y39_56 - y12_39 - y23_39 - y2_16 - y31_52 - y12_48 - y12_57 - y13_22 - y4_53 - y16_18 - y32_35 - y1_47 - y35_49 - y5_8 - y1_56 - y5_17 - y49_51 - y5_26 - y9_24 - y49_60 - y17_37 - y9_33 - y6_9 - y19_46 - y30_46 - y19_55 - y30_55 - y11_51 - y0_60 - y11_60 - y12_25 - y23_25 - y39_60 - y12_43 - y4_48 - y1_24 - y13_26 - y4_57 - y1_33 - y24_35 - y1_42 - y17_23 - y57_59 - y38_55 - y15_62 - y8_41 - y19_41 - y27_54 - y42_43 - y0_46 - y8_59 - y20_24 - y42_61 - y20_33 - y39_46 - y12_29 - y23_29 - y4_25 - y4_43 - y1_19 - y53_57 - y4_52 - y16_17 - y7_44 - y15_57 - y26_57 - y7_53 - y27_31 - y7_62 - y18_62 - y30_36 - y30_45 - y11_41 - y8_54 - y11_50 - y4_11 - y12_24 - y41_60 - y12_33 - y23_33 - y23_42 - y1_23 - y1_32 - y37_53 - y37_62 - y15_34 - y5_11 - y46_49 - y15_43 - y7_39 - y15_52 - y26_52 - y38_54 - y7_48 - y8_22 - y19_22 - y8_31 - y27_53 - y0_36 - y19_49 - y30_49 - y11_45 - y20_23 - y4_15 - y33_60 - y23_37 - y4_33 - y1_9 - y45_52 - y14_46 - y37_48 - y22_59 - y3_55 - y14_55 - y37_57 - y18_25 - y26_38 - y15_47 - y38_49 - y18_43 - y18_52 - y0_13 - y8_26 - y19_26 - y29_58 - y8_44 - y30_44 - y11_40 - y4_10 - y44_46 - y12_23 - y52_59 - y10_53 - y44_55 - y25_51 - y1_13 - y3_32 - y34_47 - y3_59 - y14_59 - y37_61 - y7_20 - y26_33 - y18_38 - y26_51 - y8_12 - y18_56 - y8_21 - y19_21 - y48_57 - y29_53 - y40_53 - y6_60 - y40_62 - y4_5 - y52_54 - y25_37 - y44_50 - y2_44 - y10_57 - y3_27 - y14_27 - y22_40 - y3_36 - y34_51 - y14_45 - y26_28 - y7_24 - y47_60 - y7_33 - y26_46 - y29_39 - y0_12 - y0_21 - y21_53 - y33_36 - y33_45 - y44_45 - y2_39 - y25_50 - y3_13 - y2_57 - y14_31 - y14_40 - y37_42 - y36_46 - y55_59 - y7_19 - y17_60 - y28_60 - y7_37 - y6_41 - y40_43 - y48_56 - y0_16 - y40_52 - y21_48 - y29_61 - y40_61 - y2_25 - y25_27 - y25_36 - y10_47 - y25_45 - y10_56 - y25_54 - y2_61 - y3_26 - y22_39 - y13_58 - y24_58 - y36_50 - y36_59 - y9_42 - y0_2 - y29_38 - y48_51 - y21_52 - y10_33 - y33_35 - y25_31 - y25_40 - y10_51 - y51_52 - y2_56 - y14_21 - y13_53 - y35_62 - y17_32 - y17_41 - y36_54 - y6_22 - y21_29 - y6_49 - y29_51 - y40_51 - y39_55 - y10_28 - y54_62 - y2_33 - y32_34 - y2_42 - y35_39 - y14_16 - y32_52 - y43_52 - y3_25 - y14_25 - y43_61 - y24_57 - y35_57 - y17_18 - y36_40 - y5_34 - y17_36 - y47_49 - y36_58 - y9_41 - y50_60 - y21_33 - y6_44 - y21_42 - y39_50 - y31_46 - y10_32 - y4_56 - y3_11 - y51_60 - y1_41 - y24_43 - y43_56 - y1_50 - y24_52 - y16_48 - y13_61 - y24_61 - y5_29 - y36_44 - y17_40 - y6_12 - y5_56 - y50_55 - y42_51 - y21_28 - y27_62 - y19_58 - y42_60 - y2_14 - y2_23 - y20_59 - y54_61 - y23_55 - y1_27 - y24_29 - y1_36 - y43_51 - y1_45 - y1_54 - y13_56 - y16_52 - y46_62 - y36_39 - y9_22 - y9_31 - y28_44 - y6_7 - y5_51 - y6_25 - y27_57 - y30_53 - y8_62 - y0_58 - y10_13 - y12_32 - y39_49 - y31_45 - y31_54 - y4_37 - y54_56 - y12_50 - y23_50 - y4_46 - y12_59 - y1_22 - y32_37 - y13_33 - y16_29 - y13_42 - y1_49 - y24_51 - y35_51 - y5_19 - y17_21 - y28_30 - y26_60 - y5_37 - y8_39 - y19_39 - y30_39 - y27_61 - y0_44 - y11_53 - y23_27 - y2_4 - y20_40 - y31_40 - y1_17 - y53_55 - y24_28 - y1_35 - y24_37 - y16_33 - y26_55 - y18_51 - y18_60 - y8_25 - y27_38 - y30_34 - y0_39 - y19_52 - y42_54 - y11_48 - y19_61 - y60_62 - y0_57 - y20_35 - y4_18 - y12_31 - y4_27 - y12_40 - y1_3 - y23_40 - y4_36 - y12_49 - y34_46 - y13_23 - y53_59 - y16_19 - y22_62 - y3_58 - y14_58 - y5_18 - y38_52 - y49_52 - y7_46 - y18_46 - y49_61 - y18_55 - y8_20 - y19_20 - y27_51 - y11_34 - y8_47 - y0_43 - y0_52 - y41_53 - y52_53 - y33_58 - y12_35 - y4_31 - y1_7 - y34_41 - y13_18 - y3_62 - y15_27 - y26_27 - y15_36 - y7_32 - y38_47 - y7_41 - y15_54 - y18_50 - y27_28 - y18_59 - y8_24 - y19_24 - y11_20 - y19_33 - y0_29 - y8_42 - y11_38 - y20_25 - y4_26 - y33_62 - y44_62 - y1_2 - y34_36 - y53_58 - y14_39 - y37_41 - y22_52 - y45_54 - y3_48 - y3_57 - y26_31 - y7_27 - y18_36 - y26_58 - y21_56 - y0_33 - y33_39 - y33_48 - y4_21 - y10_55 - y33_57 - y25_53 - y22_29 - y1_6 - y3_43 - y14_43 - y37_45 - y45_58 - y3_52 - y15_17 - y3_61 - y15_35 - y18_40 - y0_1 - y18_49 - y0_10 - y40_46 - y8_23 - y29_55 - y40_55 - y6_62 - y33_34 - y4_7 - y10_41 - y41_56 - y25_39 - y3_20 - y14_20 - y34_35 - y7_8
 Subject to
C1: x0+x1-y0_1 <=1 
C2: x0+x2-y0_2 <=1 
C3: x0+x5 <=1 
C4: x0+x7 <=1 
C5: x0+x8 <=1 
C6: x0+x9 <=1 
C7: x0+x10-y0_10 <=1 
C8: x0+x11 <=1 
C9: x0+x12-y0_12 <=1 
C10: x0+x13-y0_13 <=1 
C11: x0+x14-y0_14 <=1 
C12: x0+x16-y0_16 <=1 
C13: x0+x18 <=1 
C14: x0+x21-y0_21 <=1 
C15: x0+x23 <=1 
C16: x0+x25 <=1 
C17: x0+x26 <=1 
C18: x0+x27 <=1 
C19: x0+x28 <=1 
C20: x0+x29-y0_29 <=1 
C21: x0+x30 <=1 
C22: x0+x32 <=1 
C23: x0+x33-y0_33 <=1 
C24: x0+x36-y0_36 <=1 
C25: x0+x39-y0_39 <=1 
C26: x0+x43-y0_43 <=1 
C27: x0+x44-y0_44 <=1 
C28: x0+x46-y0_46 <=1 
C29: x0+x47 <=1 
C30: x0+x48 <=1 
C31: x0+x51 <=1 
C32: x0+x52-y0_52 <=1 
C33: x0+x56-y0_56 <=1 
C34: x0+x57-y0_57 <=1 
C35: x0+x58-y0_58 <=1 
C36: x0+x59 <=1 
C37: x0+x60-y0_60 <=1 
C38: x0+x61 <=1 
C39: x1+x2-y1_2 <=1 
C40: x1+x3-y1_3 <=1 
C41: x1+x4 <=1 
C42: x1+x5 <=1 
C43: x1+x6-y1_6 <=1 
C44: x1+x7-y1_7 <=1 
C45: x1+x9-y1_9 <=1 
C46: x1+x10 <=1 
C47: x1+x11 <=1 
C48: x1+x13-y1_13 <=1 
C49: x1+x14 <=1 
C50: x1+x17-y1_17 <=1 
C51: x1+x19-y1_19 <=1 
C52: x1+x20 <=1 
C53: x1+x22-y1_22 <=1 
C54: x1+x23-y1_23 <=1 
C55: x1+x24-y1_24 <=1 
C56: x1+x25 <=1 
C57: x1+x27-y1_27 <=1 
C58: x1+x29 <=1 
C59: x1+x32-y1_32 <=1 
C60: x1+x33-y1_33 <=1 
C61: x1+x34-y1_34 <=1 
C62: x1+x35-y1_35 <=1 
C63: x1+x36-y1_36 <=1 
C64: x1+x41-y1_41 <=1 
C65: x1+x42-y1_42 <=1 
C66: x1+x43 <=1 
C67: x1+x44 <=1 
C68: x1+x45-y1_45 <=1 
C69: x1+x47-y1_47 <=1 
C70: x1+x48 <=1 
C71: x1+x49-y1_49 <=1 
C72: x1+x50-y1_50 <=1 
C73: x1+x54-y1_54 <=1 
C74: x1+x55 <=1 
C75: x1+x56-y1_56 <=1 
C76: x1+x57 <=1 
C77: x1+x60 <=1 
C78: x1+x62-y1_62 <=1 
C79: x2+x4-y2_4 <=1 
C80: x2+x5 <=1 
C81: x2+x7-y2_7 <=1 
C82: x2+x11 <=1 
C83: x2+x12 <=1 
C84: x2+x13 <=1 
C85: x2+x14-y2_14 <=1 
C86: x2+x15 <=1 
C87: x2+x16-y2_16 <=1 
C88: x2+x19 <=1 
C89: x2+x21 <=1 
C90: x2+x22 <=1 
C91: x2+x23-y2_23 <=1 
C92: x2+x25-y2_25 <=1 
C93: x2+x28 <=1 
C94: x2+x30-y2_30 <=1 
C95: x2+x31-y2_31 <=1 
C96: x2+x32-y2_32 <=1 
C97: x2+x33-y2_33 <=1 
C98: x2+x35 <=1 
C99: x2+x39-y2_39 <=1 
C100: x2+x40-y2_40 <=1 
C101: x2+x42-y2_42 <=1 
C102: x2+x44-y2_44 <=1 
C103: x2+x46 <=1 
C104: x2+x47 <=1 
C105: x2+x49-y2_49 <=1 
C106: x2+x50-y2_50 <=1 
C107: x2+x52 <=1 
C108: x2+x54 <=1 
C109: x2+x56-y2_56 <=1 
C110: x2+x57-y2_57 <=1 
C111: x2+x60 <=1 
C112: x2+x61-y2_61 <=1 
C113: x3+x4 <=1 
C114: x3+x5 <=1 
C115: x3+x7 <=1 
C116: x3+x8 <=1 
C117: x3+x11-y3_11 <=1 
C118: x3+x13-y3_13 <=1 
C119: x3+x14 <=1 
C120: x3+x15 <=1 
C121: x3+x20-y3_20 <=1 
C122: x3+x21 <=1 
C123: x3+x23 <=1 
C124: x3+x25-y3_25 <=1 
C125: x3+x26-y3_26 <=1 
C126: x3+x27-y3_27 <=1 
C127: x3+x29 <=1 
C128: x3+x31 <=1 
C129: x3+x32-y3_32 <=1 
C130: x3+x34 <=1 
C131: x3+x35 <=1 
C132: x3+x36-y3_36 <=1 
C133: x3+x37-y3_37 <=1 
C134: x3+x42-y3_42 <=1 
C135: x3+x43-y3_43 <=1 
C136: x3+x46 <=1 
C137: x3+x48-y3_48 <=1 
C138: x3+x49 <=1 
C139: x3+x52-y3_52 <=1 
C140: x3+x53 <=1 
C141: x3+x54 <=1 
C142: x3+x55-y3_55 <=1 
C143: x3+x57-y3_57 <=1 
C144: x3+x58-y3_58 <=1 
C145: x3+x59-y3_59 <=1 
C146: x3+x60 <=1 
C147: x3+x61-y3_61 <=1 
C148: x3+x62-y3_62 <=1 
C149: x4+x5-y4_5 <=1 
C150: x4+x6 <=1 
C151: x4+x7-y4_7 <=1 
C152: x4+x8 <=1 
C153: x4+x10-y4_10 <=1 
C154: x4+x11-y4_11 <=1 
C155: x4+x14 <=1 
C156: x4+x15-y4_15 <=1 
C157: x4+x17 <=1 
C158: x4+x18-y4_18 <=1 
C159: x4+x21-y4_21 <=1 
C160: x4+x25-y4_25 <=1 
C161: x4+x26-y4_26 <=1 
C162: x4+x27-y4_27 <=1 
C163: x4+x28 <=1 
C164: x4+x29 <=1 
C165: x4+x31-y4_31 <=1 
C166: x4+x32 <=1 
C167: x4+x33-y4_33 <=1 
C168: x4+x34 <=1 
C169: x4+x35 <=1 
C170: x4+x36-y4_36 <=1 
C171: x4+x37-y4_37 <=1 
C172: x4+x39 <=1 
C173: x4+x41 <=1 
C174: x4+x43-y4_43 <=1 
C175: x4+x45 <=1 
C176: x4+x46-y4_46 <=1 
C177: x4+x47 <=1 
C178: x4+x48-y4_48 <=1 
C179: x4+x50 <=1 
C180: x4+x51 <=1 
C181: x4+x52-y4_52 <=1 
C182: x4+x53-y4_53 <=1 
C183: x4+x54 <=1 
C184: x4+x56-y4_56 <=1 
C185: x4+x57-y4_57 <=1 
C186: x4+x58-y4_58 <=1 
C187: x4+x60 <=1 
C188: x5+x8-y5_8 <=1 
C189: x5+x9 <=1 
C190: x5+x10 <=1 
C191: x5+x11-y5_11 <=1 
C192: x5+x12 <=1 
C193: x5+x14 <=1 
C194: x5+x17-y5_17 <=1 
C195: x5+x18-y5_18 <=1 
C196: x5+x19-y5_19 <=1 
C197: x5+x25 <=1 
C198: x5+x26-y5_26 <=1 
C199: x5+x29-y5_29 <=1 
C200: x5+x30 <=1 
C201: x5+x33 <=1 
C202: x5+x34-y5_34 <=1 
C203: x5+x35 <=1 
C204: x5+x36 <=1 
C205: x5+x37-y5_37 <=1 
C206: x5+x43 <=1 
C207: x5+x44 <=1 
C208: x5+x46 <=1 
C209: x5+x48 <=1 
C210: x5+x49-y5_49 <=1 
C211: x5+x51-y5_51 <=1 
C212: x5+x53 <=1 
C213: x5+x56-y5_56 <=1 
C214: x5+x58 <=1 
C215: x5+x59-y5_59 <=1 
C216: x5+x60 <=1 
C217: x5+x61 <=1 
C218: x6+x7-y6_7 <=1 
C219: x6+x9-y6_9 <=1 
C220: x6+x12-y6_12 <=1 
C221: x6+x13 <=1 
C222: x6+x14 <=1 
C223: x6+x16 <=1 
C224: x6+x18 <=1 
C225: x6+x19 <=1 
C226: x6+x20 <=1 
C227: x6+x21 <=1 
C228: x6+x22-y6_22 <=1 
C229: x6+x23-y6_23 <=1 
C230: x6+x25-y6_25 <=1 
C231: x6+x26 <=1 
C232: x6+x28-y6_28 <=1 
C233: x6+x29-y6_29 <=1 
C234: x6+x31 <=1 
C235: x6+x33 <=1 
C236: x6+x34-y6_34 <=1 
C237: x6+x35 <=1 
C238: x6+x37 <=1 
C239: x6+x40 <=1 
C240: x6+x41-y6_41 <=1 
C241: x6+x42 <=1 
C242: x6+x44-y6_44 <=1 
C243: x6+x45 <=1 
C244: x6+x47 <=1 
C245: x6+x48-y6_48 <=1 
C246: x6+x49-y6_49 <=1 
C247: x6+x51-y6_51 <=1 
C248: x6+x53 <=1 
C249: x6+x54 <=1 
C250: x6+x56-y6_56 <=1 
C251: x6+x57-y6_57 <=1 
C252: x6+x58 <=1 
C253: x6+x60-y6_60 <=1 
C254: x6+x61 <=1 
C255: x6+x62-y6_62 <=1 
C256: x7+x8-y7_8 <=1 
C257: x7+x11 <=1 
C258: x7+x13 <=1 
C259: x7+x17 <=1 
C260: x7+x18 <=1 
C261: x7+x19-y7_19 <=1 
C262: x7+x20-y7_20 <=1 
C263: x7+x21-y7_21 <=1 
C264: x7+x23 <=1 
C265: x7+x24-y7_24 <=1 
C266: x7+x25 <=1 
C267: x7+x26-y7_26 <=1 
C268: x7+x27-y7_27 <=1 
C269: x7+x28 <=1 
C270: x7+x29 <=1 
C271: x7+x30 <=1 
C272: x7+x31 <=1 
C273: x7+x32-y7_32 <=1 
C274: x7+x33-y7_33 <=1 
C275: x7+x34 <=1 
C276: x7+x35 <=1 
C277: x7+x37-y7_37 <=1 
C278: x7+x39-y7_39 <=1 
C279: x7+x41-y7_41 <=1 
C280: x7+x42 <=1 
C281: x7+x43 <=1 
C282: x7+x44-y7_44 <=1 
C283: x7+x45 <=1 
C284: x7+x46-y7_46 <=1 
C285: x7+x47 <=1 
C286: x7+x48-y7_48 <=1 
C287: x7+x53-y7_53 <=1 
C288: x7+x55 <=1 
C289: x7+x56 <=1 
C290: x7+x58 <=1 
C291: x7+x60 <=1 
C292: x7+x62-y7_62 <=1 
C293: x8+x9 <=1 
C294: x8+x11 <=1 
C295: x8+x12-y8_12 <=1 
C296: x8+x16 <=1 
C297: x8+x17 <=1 
C298: x8+x18 <=1 
C299: x8+x19 <=1 
C300: x8+x20-y8_20 <=1 
C301: x8+x21-y8_21 <=1 
C302: x8+x22-y8_22 <=1 
C303: x8+x23-y8_23 <=1 
C304: x8+x24-y8_24 <=1 
C305: x8+x25-y8_25 <=1 
C306: x8+x26-y8_26 <=1 
C307: x8+x28 <=1 
C308: x8+x29 <=1 
C309: x8+x31-y8_31 <=1 
C310: x8+x32 <=1 
C311: x8+x33 <=1 
C312: x8+x35 <=1 
C313: x8+x36 <=1 
C314: x8+x37 <=1 
C315: x8+x39-y8_39 <=1 
C316: x8+x40 <=1 
C317: x8+x41-y8_41 <=1 
C318: x8+x42-y8_42 <=1 
C319: x8+x44-y8_44 <=1 
C320: x8+x45 <=1 
C321: x8+x47-y8_47 <=1 
C322: x8+x49 <=1 
C323: x8+x50 <=1 
C324: x8+x54-y8_54 <=1 
C325: x8+x55 <=1 
C326: x8+x56 <=1 
C327: x8+x58 <=1 
C328: x8+x59-y8_59 <=1 
C329: x8+x62-y8_62 <=1 
C330: x9+x12 <=1 
C331: x9+x16 <=1 
C332: x9+x17 <=1 
C333: x9+x20 <=1 
C334: x9+x22-y9_22 <=1 
C335: x9+x23 <=1 
C336: x9+x24-y9_24 <=1 
C337: x9+x25 <=1 
C338: x9+x26 <=1 
C339: x9+x28 <=1 
C340: x9+x29 <=1 
C341: x9+x30-y9_30 <=1 
C342: x9+x31-y9_31 <=1 
C343: x9+x32 <=1 
C344: x9+x33-y9_33 <=1 
C345: x9+x38 <=1 
C346: x9+x40 <=1 
C347: x9+x41-y9_41 <=1 
C348: x9+x42-y9_42 <=1 
C349: x9+x43-y9_43 <=1 
C350: x9+x47-y9_47 <=1 
C351: x9+x48-y9_48 <=1 
C352: x9+x49-y9_49 <=1 
C353: x9+x51 <=1 
C354: x9+x53 <=1 
C355: x9+x54 <=1 
C356: x9+x56 <=1 
C357: x9+x57-y9_57 <=1 
C358: x9+x61-y9_61 <=1 
C359: x9+x62-y9_62 <=1 
C360: x10+x13-y10_13 <=1 
C361: x10+x14 <=1 
C362: x10+x21-y10_21 <=1 
C363: x10+x25-y10_25 <=1 
C364: x10+x26-y10_26 <=1 
C365: x10+x28-y10_28 <=1 
C366: x10+x30-y10_30 <=1 
C367: x10+x32-y10_32 <=1 
C368: x10+x33-y10_33 <=1 
C369: x10+x35 <=1 
C370: x10+x39-y10_39 <=1 
C371: x10+x41-y10_41 <=1 
C372: x10+x44 <=1 
C373: x10+x45 <=1 
C374: x10+x46 <=1 
C375: x10+x47-y10_47 <=1 
C376: x10+x50 <=1 
C377: x10+x51-y10_51 <=1 
C378: x10+x52 <=1 
C379: x10+x53-y10_53 <=1 
C380: x10+x54-y10_54 <=1 
C381: x10+x55-y10_55 <=1 
C382: x10+x56-y10_56 <=1 
C383: x10+x57-y10_57 <=1 
C384: x10+x58 <=1 
C385: x11+x12 <=1 
C386: x11+x14 <=1 
C387: x11+x17 <=1 
C388: x11+x20-y11_20 <=1 
C389: x11+x21 <=1 
C390: x11+x25 <=1 
C391: x11+x26 <=1 
C392: x11+x31 <=1 
C393: x11+x32 <=1 
C394: x11+x34-y11_34 <=1 
C395: x11+x38-y11_38 <=1 
C396: x11+x39 <=1 
C397: x11+x40-y11_40 <=1 
C398: x11+x41-y11_41 <=1 
C399: x11+x42 <=1 
C400: x11+x45-y11_45 <=1 
C401: x11+x46 <=1 
C402: x11+x47 <=1 
C403: x11+x48-y11_48 <=1 
C404: x11+x49 <=1 
C405: x11+x50-y11_50 <=1 
C406: x11+x51-y11_51 <=1 
C407: x11+x52 <=1 
C408: x11+x53-y11_53 <=1 
C409: x11+x54 <=1 
C410: x11+x55 <=1 
C411: x11+x60-y11_60 <=1 
C412: x11+x61 <=1 
C413: x11+x62 <=1 
C414: x12+x13 <=1 
C415: x12+x14 <=1 
C416: x12+x17 <=1 
C417: x12+x19 <=1 
C418: x12+x20 <=1 
C419: x12+x22 <=1 
C420: x12+x23-y12_23 <=1 
C421: x12+x24-y12_24 <=1 
C422: x12+x25-y12_25 <=1 
C423: x12+x26 <=1 
C424: x12+x28 <=1 
C425: x12+x29-y12_29 <=1 
C426: x12+x31-y12_31 <=1 
C427: x12+x32-y12_32 <=1 
C428: x12+x33-y12_33 <=1 
C429: x12+x35-y12_35 <=1 
C430: x12+x37 <=1 
C431: x12+x39-y12_39 <=1 
C432: x12+x40-y12_40 <=1 
C433: x12+x41 <=1 
C434: x12+x43-y12_43 <=1 
C435: x12+x48-y12_48 <=1 
C436: x12+x49-y12_49 <=1 
C437: x12+x50-y12_50 <=1 
C438: x12+x51 <=1 
C439: x12+x52 <=1 
C440: x12+x54 <=1 
C441: x12+x55 <=1 
C442: x12+x57-y12_57 <=1 
C443: x12+x59-y12_59 <=1 
C444: x12+x62-y12_62 <=1 
C445: x13+x15 <=1 
C446: x13+x16 <=1 
C447: x13+x18-y13_18 <=1 
C448: x13+x20 <=1 
C449: x13+x21 <=1 
C450: x13+x22-y13_22 <=1 
C451: x13+x23-y13_23 <=1 
C452: x13+x24 <=1 
C453: x13+x26-y13_26 <=1 
C454: x13+x27 <=1 
C455: x13+x28 <=1 
C456: x13+x33-y13_33 <=1 
C457: x13+x35 <=1 
C458: x13+x40 <=1 
C459: x13+x42-y13_42 <=1 
C460: x13+x44 <=1 
C461: x13+x45 <=1 
C462: x13+x46 <=1 
C463: x13+x47 <=1 
C464: x13+x48 <=1 
C465: x13+x49 <=1 
C466: x13+x50-y13_50 <=1 
C467: x13+x53-y13_53 <=1 
C468: x13+x54-y13_54 <=1 
C469: x13+x55 <=1 
C470: x13+x56-y13_56 <=1 
C471: x13+x58-y13_58 <=1 
C472: x13+x59 <=1 
C473: x13+x61-y13_61 <=1 
C474: x14+x16-y14_16 <=1 
C475: x14+x17 <=1 
C476: x14+x18-y14_18 <=1 
C477: x14+x20-y14_20 <=1 
C478: x14+x21-y14_21 <=1 
C479: x14+x25-y14_25 <=1 
C480: x14+x27-y14_27 <=1 
C481: x14+x31-y14_31 <=1 
C482: x14+x32-y14_32 <=1 
C483: x14+x34 <=1 
C484: x14+x36 <=1 
C485: x14+x37 <=1 
C486: x14+x39-y14_39 <=1 
C487: x14+x40-y14_40 <=1 
C488: x14+x41 <=1 
C489: x14+x43-y14_43 <=1 
C490: x14+x45-y14_45 <=1 
C491: x14+x46-y14_46 <=1 
C492: x14+x49 <=1 
C493: x14+x50 <=1 
C494: x14+x53 <=1 
C495: x14+x55-y14_55 <=1 
C496: x14+x56 <=1 
C497: x14+x57 <=1 
C498: x14+x58-y14_58 <=1 
C499: x14+x59-y14_59 <=1 
C500: x14+x60 <=1 
C501: x14+x61 <=1 
C502: x15+x16 <=1 
C503: x15+x17-y15_17 <=1 
C504: x15+x21 <=1 
C505: x15+x22 <=1 
C506: x15+x24 <=1 
C507: x15+x26 <=1 
C508: x15+x27-y15_27 <=1 
C509: x15+x31 <=1 
C510: x15+x32 <=1 
C511: x15+x34-y15_34 <=1 
C512: x15+x35-y15_35 <=1 
C513: x15+x36-y15_36 <=1 
C514: x15+x38 <=1 
C515: x15+x39-y15_39 <=1 
C516: x15+x43-y15_43 <=1 
C517: x15+x45 <=1 
C518: x15+x47-y15_47 <=1 
C519: x15+x52-y15_52 <=1 
C520: x15+x53 <=1 
C521: x15+x54-y15_54 <=1 
C522: x15+x57-y15_57 <=1 
C523: x15+x58 <=1 
C524: x15+x59 <=1 
C525: x15+x62-y15_62 <=1 
C526: x16+x17-y16_17 <=1 
C527: x16+x18-y16_18 <=1 
C528: x16+x19-y16_19 <=1 
C529: x16+x24 <=1 
C530: x16+x27 <=1 
C531: x16+x28 <=1 
C532: x16+x29-y16_29 <=1 
C533: x16+x31 <=1 
C534: x16+x32-y16_32 <=1 
C535: x16+x33-y16_33 <=1 
C536: x16+x34 <=1 
C537: x16+x39 <=1 
C538: x16+x43 <=1 
C539: x16+x45 <=1 
C540: x16+x47 <=1 
C541: x16+x48-y16_48 <=1 
C542: x16+x49 <=1 
C543: x16+x51 <=1 
C544: x16+x52-y16_52 <=1 
C545: x16+x56-y16_56 <=1 
C546: x16+x57 <=1 
C547: x16+x60-y16_60 <=1 
C548: x17+x18-y17_18 <=1 
C549: x17+x20-y17_20 <=1 
C550: x17+x21-y17_21 <=1 
C551: x17+x22 <=1 
C552: x17+x23-y17_23 <=1 
C553: x17+x24 <=1 
C554: x17+x25 <=1 
C555: x17+x26 <=1 
C556: x17+x27 <=1 
C557: x17+x29 <=1 
C558: x17+x32-y17_32 <=1 
C559: x17+x33 <=1 
C560: x17+x36-y17_36 <=1 
C561: x17+x37-y17_37 <=1 
C562: x17+x38-y17_38 <=1 
C563: x17+x40-y17_40 <=1 
C564: x17+x41-y17_41 <=1 
C565: x17+x42-y17_42 <=1 
C566: x17+x43 <=1 
C567: x17+x46 <=1 
C568: x17+x49 <=1 
C569: x17+x50 <=1 
C570: x17+x51 <=1 
C571: x17+x52 <=1 
C572: x17+x53 <=1 
C573: x17+x56-y17_56 <=1 
C574: x17+x57-y17_57 <=1 
C575: x17+x58-y17_58 <=1 
C576: x17+x60-y17_60 <=1 
C577: x17+x61-y17_61 <=1 
C578: x18+x21 <=1 
C579: x18+x23 <=1 
C580: x18+x25-y18_25 <=1 
C581: x18+x26 <=1 
C582: x18+x27 <=1 
C583: x18+x30 <=1 
C584: x18+x31 <=1 
C585: x18+x35-y18_35 <=1 
C586: x18+x36-y18_36 <=1 
C587: x18+x37 <=1 
C588: x18+x38-y18_38 <=1 
C589: x18+x39 <=1 
C590: x18+x40-y18_40 <=1 
C591: x18+x42 <=1 
C592: x18+x43-y18_43 <=1 
C593: x18+x44-y18_44 <=1 
C594: x18+x46-y18_46 <=1 
C595: x18+x49-y18_49 <=1 
C596: x18+x50-y18_50 <=1 
C597: x18+x51-y18_51 <=1 
C598: x18+x52-y18_52 <=1 
C599: x18+x55-y18_55 <=1 
C600: x18+x56-y18_56 <=1 
C601: x18+x58 <=1 
C602: x18+x59-y18_59 <=1 
C603: x18+x60-y18_60 <=1 
C604: x18+x62-y18_62 <=1 
C605: x19+x20-y19_20 <=1 
C606: x19+x21-y19_21 <=1 
C607: x19+x22-y19_22 <=1 
C608: x19+x23 <=1 
C609: x19+x24-y19_24 <=1 
C610: x19+x25 <=1 
C611: x19+x26-y19_26 <=1 
C612: x19+x29 <=1 
C613: x19+x33-y19_33 <=1 
C614: x19+x34 <=1 
C615: x19+x35 <=1 
C616: x19+x38 <=1 
C617: x19+x39-y19_39 <=1 
C618: x19+x41-y19_41 <=1 
C619: x19+x43 <=1 
C620: x19+x46-y19_46 <=1 
C621: x19+x47 <=1 
C622: x19+x48 <=1 
C623: x19+x49-y19_49 <=1 
C624: x19+x52-y19_52 <=1 
C625: x19+x55-y19_55 <=1 
C626: x19+x58-y19_58 <=1 
C627: x19+x61-y19_61 <=1 
C628: x19+x62 <=1 
C629: x20+x23-y20_23 <=1 
C630: x20+x24-y20_24 <=1 
C631: x20+x25-y20_25 <=1 
C632: x20+x26 <=1 
C633: x20+x27 <=1 
C634: x20+x32 <=1 
C635: x20+x33-y20_33 <=1 
C636: x20+x34-y20_34 <=1 
C637: x20+x35-y20_35 <=1 
C638: x20+x38 <=1 
C639: x20+x40-y20_40 <=1 
C640: x20+x43 <=1 
C641: x20+x44 <=1 
C642: x20+x45 <=1 
C643: x20+x47 <=1 
C644: x20+x50 <=1 
C645: x20+x54 <=1 
C646: x20+x58 <=1 
C647: x20+x59-y20_59 <=1 
C648: x20+x61 <=1 
C649: x21+x25 <=1 
C650: x21+x26-y21_26 <=1 
C651: x21+x27 <=1 
C652: x21+x28-y21_28 <=1 
C653: x21+x29-y21_29 <=1 
C654: x21+x31 <=1 
C655: x21+x32-y21_32 <=1 
C656: x21+x33-y21_33 <=1 
C657: x21+x34 <=1 
C658: x21+x36 <=1 
C659: x21+x37-y21_37 <=1 
C660: x21+x40 <=1 
C661: x21+x42-y21_42 <=1 
C662: x21+x44 <=1 
C663: x21+x46 <=1 
C664: x21+x47 <=1 
C665: x21+x48-y21_48 <=1 
C666: x21+x50 <=1 
C667: x21+x52-y21_52 <=1 
C668: x21+x53-y21_53 <=1 
C669: x21+x54 <=1 
C670: x21+x56-y21_56 <=1 
C671: x21+x58 <=1 
C672: x21+x61 <=1 
C673: x22+x25 <=1 
C674: x22+x26 <=1 
C675: x22+x27 <=1 
C676: x22+x28-y22_28 <=1 
C677: x22+x29-y22_29 <=1 
C678: x22+x31 <=1 
C679: x22+x34 <=1 
C680: x22+x38 <=1 
C681: x22+x39-y22_39 <=1 
C682: x22+x40-y22_40 <=1 
C683: x22+x44 <=1 
C684: x22+x45 <=1 
C685: x22+x46 <=1 
C686: x22+x50 <=1 
C687: x22+x51 <=1 
C688: x22+x52-y22_52 <=1 
C689: x22+x55 <=1 
C690: x22+x56 <=1 
C691: x22+x58 <=1 
C692: x22+x59-y22_59 <=1 
C693: x22+x60 <=1 
C694: x22+x61 <=1 
C695: x22+x62-y22_62 <=1 
C696: x23+x25-y23_25 <=1 
C697: x23+x27-y23_27 <=1 
C698: x23+x28 <=1 
C699: x23+x29-y23_29 <=1 
C700: x23+x33-y23_33 <=1 
C701: x23+x34 <=1 
C702: x23+x35 <=1 
C703: x23+x37-y23_37 <=1 
C704: x23+x39-y23_39 <=1 
C705: x23+x40-y23_40 <=1 
C706: x23+x42-y23_42 <=1 
C707: x23+x44 <=1 
C708: x23+x47 <=1 
C709: x23+x50-y23_50 <=1 
C710: x23+x51 <=1 
C711: x23+x55-y23_55 <=1 
C712: x23+x58-y23_58 <=1 
C713: x23+x61 <=1 
C714: x23+x62 <=1 
C715: x24+x25 <=1 
C716: x24+x26 <=1 
C717: x24+x27 <=1 
C718: x24+x28-y24_28 <=1 
C719: x24+x29-y24_29 <=1 
C720: x24+x33 <=1 
C721: x24+x35-y24_35 <=1 
C722: x24+x36 <=1 
C723: x24+x37-y24_37 <=1 
C724: x24+x38 <=1 
C725: x24+x40 <=1 
C726: x24+x43-y24_43 <=1 
C727: x24+x45-y24_45 <=1 
C728: x24+x46-y24_46 <=1 
C729: x24+x48 <=1 
C730: x24+x51-y24_51 <=1 
C731: x24+x52-y24_52 <=1 
C732: x24+x53 <=1 
C733: x24+x54 <=1 
C734: x24+x55 <=1 
C735: x24+x57-y24_57 <=1 
C736: x24+x58-y24_58 <=1 
C737: x24+x59 <=1 
C738: x24+x61-y24_61 <=1 
C739: x25+x26 <=1 
C740: x25+x27-y25_27 <=1 
C741: x25+x28-y25_28 <=1 
C742: x25+x31-y25_31 <=1 
C743: x25+x32 <=1 
C744: x25+x33-y25_33 <=1 
C745: x25+x34-y25_34 <=1 
C746: x25+x36-y25_36 <=1 
C747: x25+x37-y25_37 <=1 
C748: x25+x38 <=1 
C749: x25+x39-y25_39 <=1 
C750: x25+x40-y25_40 <=1 
C751: x25+x41 <=1 
C752: x25+x45-y25_45 <=1 
C753: x25+x47 <=1 
C754: x25+x48 <=1 
C755: x25+x50-y25_50 <=1 
C756: x25+x51-y25_51 <=1 
C757: x25+x53-y25_53 <=1 
C758: x25+x54-y25_54 <=1 
C759: x25+x57 <=1 
C760: x25+x58 <=1 
C761: x25+x60 <=1 
C762: x25+x61-y25_61 <=1 
C763: x26+x27-y26_27 <=1 
C764: x26+x28-y26_28 <=1 
C765: x26+x29 <=1 
C766: x26+x31-y26_31 <=1 
C767: x26+x33-y26_33 <=1 
C768: x26+x37 <=1 
C769: x26+x38-y26_38 <=1 
C770: x26+x39 <=1 
C771: x26+x42 <=1 
C772: x26+x46-y26_46 <=1 
C773: x26+x47 <=1 
C774: x26+x48 <=1 
C775: x26+x49 <=1 
C776: x26+x51-y26_51 <=1 
C777: x26+x52-y26_52 <=1 
C778: x26+x53 <=1 
C779: x26+x54 <=1 
C780: x26+x55-y26_55 <=1 
C781: x26+x56 <=1 
C782: x26+x57-y26_57 <=1 
C783: x26+x58-y26_58 <=1 
C784: x26+x59 <=1 
C785: x26+x60-y26_60 <=1 
C786: x26+x62 <=1 
C787: x27+x28-y27_28 <=1 
C788: x27+x31-y27_31 <=1 
C789: x27+x32 <=1 
C790: x27+x34 <=1 
C791: x27+x36 <=1 
C792: x27+x37 <=1 
C793: x27+x38-y27_38 <=1 
C794: x27+x39 <=1 
C795: x27+x42 <=1 
C796: x27+x43 <=1 
C797: x27+x46 <=1 
C798: x27+x49 <=1 
C799: x27+x50 <=1 
C800: x27+x51-y27_51 <=1 
C801: x27+x53-y27_53 <=1 
C802: x27+x54-y27_54 <=1 
C803: x27+x57-y27_57 <=1 
C804: x27+x60-y27_60 <=1 
C805: x27+x61-y27_61 <=1 
C806: x27+x62-y27_62 <=1 
C807: x28+x29-y28_29 <=1 
C808: x28+x30-y28_30 <=1 
C809: x28+x32 <=1 
C810: x28+x33 <=1 
C811: x28+x34-y28_34 <=1 
C812: x28+x35 <=1 
C813: x28+x36 <=1 
C814: x28+x42-y28_42 <=1 
C815: x28+x44-y28_44 <=1 
C816: x28+x45 <=1 
C817: x28+x52-y28_52 <=1 
C818: x28+x55 <=1 
C819: x28+x56 <=1 
C820: x28+x57 <=1 
C821: x28+x60-y28_60 <=1 
C822: x28+x61-y28_61 <=1 
C823: x29+x31-y29_31 <=1 
C824: x29+x32-y29_32 <=1 
C825: x29+x34 <=1 
C826: x29+x36-y29_36 <=1 
C827: x29+x38-y29_38 <=1 
C828: x29+x39-y29_39 <=1 
C829: x29+x40 <=1 
C830: x29+x41 <=1 
C831: x29+x45 <=1 
C832: x29+x47 <=1 
C833: x29+x48 <=1 
C834: x29+x49 <=1 
C835: x29+x50 <=1 
C836: x29+x51-y29_51 <=1 
C837: x29+x52 <=1 
C838: x29+x53-y29_53 <=1 
C839: x29+x55-y29_55 <=1 
C840: x29+x56 <=1 
C841: x29+x58-y29_58 <=1 
C842: x29+x59-y29_59 <=1 
C843: x29+x61-y29_61 <=1 
C844: x30+x34-y30_34 <=1 
C845: x30+x35 <=1 
C846: x30+x36-y30_36 <=1 
C847: x30+x39-y30_39 <=1 
C848: x30+x40 <=1 
C849: x30+x41 <=1 
C850: x30+x42 <=1 
C851: x30+x44-y30_44 <=1 
C852: x30+x45-y30_45 <=1 
C853: x30+x46-y30_46 <=1 
C854: x30+x47 <=1 
C855: x30+x48 <=1 
C856: x30+x49-y30_49 <=1 
C857: x30+x51 <=1 
C858: x30+x53-y30_53 <=1 
C859: x30+x54 <=1 
C860: x30+x55-y30_55 <=1 
C861: x30+x57 <=1 
C862: x30+x59 <=1 
C863: x30+x60 <=1 
C864: x31+x32 <=1 
C865: x31+x39 <=1 
C866: x31+x40-y31_40 <=1 
C867: x31+x42 <=1 
C868: x31+x44 <=1 
C869: x31+x45-y31_45 <=1 
C870: x31+x46-y31_46 <=1 
C871: x31+x47 <=1 
C872: x31+x52-y31_52 <=1 
C873: x31+x54-y31_54 <=1 
C874: x31+x55 <=1 
C875: x31+x61 <=1 
C876: x32+x34-y32_34 <=1 
C877: x32+x35-y32_35 <=1 
C878: x32+x37-y32_37 <=1 
C879: x32+x38 <=1 
C880: x32+x39 <=1 
C881: x32+x41-y32_41 <=1 
C882: x32+x42 <=1 
C883: x32+x47 <=1 
C884: x32+x48 <=1 
C885: x32+x50 <=1 
C886: x32+x52-y32_52 <=1 
C887: x32+x53 <=1 
C888: x32+x54-y32_54 <=1 
C889: x32+x55-y32_55 <=1 
C890: x32+x56 <=1 
C891: x32+x58-y32_58 <=1 
C892: x32+x59 <=1 
C893: x32+x60 <=1 
C894: x32+x61 <=1 
C895: x33+x34-y33_34 <=1 
C896: x33+x35-y33_35 <=1 
C897: x33+x36-y33_36 <=1 
C898: x33+x37 <=1 
C899: x33+x38-y33_38 <=1 
C900: x33+x39-y33_39 <=1 
C901: x33+x42 <=1 
C902: x33+x44 <=1 
C903: x33+x45-y33_45 <=1 
C904: x33+x46 <=1 
C905: x33+x47-y33_47 <=1 
C906: x33+x48-y33_48 <=1 
C907: x33+x50 <=1 
C908: x33+x52 <=1 
C909: x33+x54 <=1 
C910: x33+x57-y33_57 <=1 
C911: x33+x58-y33_58 <=1 
C912: x33+x60-y33_60 <=1 
C913: x33+x61 <=1 
C914: x33+x62-y33_62 <=1 
C915: x34+x35-y34_35 <=1 
C916: x34+x36-y34_36 <=1 
C917: x34+x37 <=1 
C918: x34+x38 <=1 
C919: x34+x39 <=1 
C920: x34+x40 <=1 
C921: x34+x41-y34_41 <=1 
C922: x34+x43 <=1 
C923: x34+x44 <=1 
C924: x34+x46-y34_46 <=1 
C925: x34+x47-y34_47 <=1 
C926: x34+x49 <=1 
C927: x34+x50 <=1 
C928: x34+x51-y34_51 <=1 
C929: x34+x52 <=1 
C930: x34+x55 <=1 
C931: x34+x56 <=1 
C932: x34+x59 <=1 
C933: x34+x60 <=1 
C934: x35+x37 <=1 
C935: x35+x39-y35_39 <=1 
C936: x35+x40 <=1 
C937: x35+x44 <=1 
C938: x35+x47 <=1 
C939: x35+x49-y35_49 <=1 
C940: x35+x51-y35_51 <=1 
C941: x35+x54 <=1 
C942: x35+x57-y35_57 <=1 
C943: x35+x59 <=1 
C944: x35+x60-y35_60 <=1 
C945: x35+x61 <=1 
C946: x35+x62-y35_62 <=1 
C947: x36+x37-y36_37 <=1 
C948: x36+x39-y36_39 <=1 
C949: x36+x40-y36_40 <=1 
C950: x36+x41 <=1 
C951: x36+x44-y36_44 <=1 
C952: x36+x46-y36_46 <=1 
C953: x36+x50-y36_50 <=1 
C954: x36+x51-y36_51 <=1 
C955: x36+x52 <=1 
C956: x36+x53-y36_53 <=1 
C957: x36+x54-y36_54 <=1 
C958: x36+x56-y36_56 <=1 
C959: x36+x57-y36_57 <=1 
C960: x36+x58-y36_58 <=1 
C961: x36+x59-y36_59 <=1 
C962: x36+x61 <=1 
C963: x36+x62-y36_62 <=1 
C964: x37+x38 <=1 
C965: x37+x41-y37_41 <=1 
C966: x37+x42-y37_42 <=1 
C967: x37+x45-y37_45 <=1 
C968: x37+x46 <=1 
C969: x37+x48-y37_48 <=1 
C970: x37+x49 <=1 
C971: x37+x51 <=1 
C972: x37+x52 <=1 
C973: x37+x53-y37_53 <=1 
C974: x37+x54 <=1 
C975: x37+x57-y37_57 <=1 
C976: x37+x58 <=1 
C977: x37+x61-y37_61 <=1 
C978: x37+x62-y37_62 <=1 
C979: x38+x46 <=1 
C980: x38+x47-y38_47 <=1 
C981: x38+x48 <=1 
C982: x38+x49-y38_49 <=1 
C983: x38+x51 <=1 
C984: x38+x52-y38_52 <=1 
C985: x38+x53 <=1 
C986: x38+x54-y38_54 <=1 
C987: x38+x55-y38_55 <=1 
C988: x38+x56 <=1 
C989: x38+x61 <=1 
C990: x39+x42 <=1 
C991: x39+x44 <=1 
C992: x39+x45 <=1 
C993: x39+x46-y39_46 <=1 
C994: x39+x47 <=1 
C995: x39+x48-y39_48 <=1 
C996: x39+x49-y39_49 <=1 
C997: x39+x50-y39_50 <=1 
C998: x39+x52 <=1 
C999: x39+x54 <=1 
C1000: x39+x55-y39_55 <=1 
C1001: x39+x56-y39_56 <=1 
C1002: x39+x57 <=1 
C1003: x39+x59 <=1 
C1004: x39+x60-y39_60 <=1 
C1005: x40+x41 <=1 
C1006: x40+x43-y40_43 <=1 
C1007: x40+x44-y40_44 <=1 
C1008: x40+x46-y40_46 <=1 
C1009: x40+x47 <=1 
C1010: x40+x48 <=1 
C1011: x40+x49-y40_49 <=1 
C1012: x40+x50-y40_50 <=1 
C1013: x40+x51-y40_51 <=1 
C1014: x40+x52-y40_52 <=1 
C1015: x40+x53-y40_53 <=1 
C1016: x40+x54 <=1 
C1017: x40+x55-y40_55 <=1 
C1018: x40+x56 <=1 
C1019: x40+x57 <=1 
C1020: x40+x60 <=1 
C1021: x40+x61-y40_61 <=1 
C1022: x40+x62-y40_62 <=1 
C1023: x41+x42 <=1 
C1024: x41+x44 <=1 
C1025: x41+x45 <=1 
C1026: x41+x48 <=1 
C1027: x41+x51-y41_51 <=1 
C1028: x41+x52 <=1 
C1029: x41+x53-y41_53 <=1 
C1030: x41+x55 <=1 
C1031: x41+x56-y41_56 <=1 
C1032: x41+x57 <=1 
C1033: x41+x58 <=1 
C1034: x41+x59 <=1 
C1035: x41+x60-y41_60 <=1 
C1036: x42+x43-y42_43 <=1 
C1037: x42+x45 <=1 
C1038: x42+x46 <=1 
C1039: x42+x47 <=1 
C1040: x42+x49 <=1 
C1041: x42+x51-y42_51 <=1 
C1042: x42+x52 <=1 
C1043: x42+x53-y42_53 <=1 
C1044: x42+x54-y42_54 <=1 
C1045: x42+x55 <=1 
C1046: x42+x58 <=1 
C1047: x42+x60-y42_60 <=1 
C1048: x42+x61-y42_61 <=1 
C1049: x42+x62-y42_62 <=1 
C1050: x43+x44 <=1 
C1051: x43+x48 <=1 
C1052: x43+x49 <=1 
C1053: x43+x50 <=1 
C1054: x43+x51-y43_51 <=1 
C1055: x43+x52-y43_52 <=1 
C1056: x43+x53 <=1 
C1057: x43+x54 <=1 
C1058: x43+x56-y43_56 <=1 
C1059: x43+x60-y43_60 <=1 
C1060: x43+x61-y43_61 <=1 
C1061: x44+x45-y44_45 <=1 
C1062: x44+x46-y44_46 <=1 
C1063: x44+x47 <=1 
C1064: x44+x50-y44_50 <=1 
C1065: x44+x51 <=1 
C1066: x44+x53 <=1 
C1067: x44+x55-y44_55 <=1 
C1068: x44+x57 <=1 
C1069: x44+x58 <=1 
C1070: x44+x59 <=1 
C1071: x44+x62-y44_62 <=1 
C1072: x45+x46 <=1 
C1073: x45+x48 <=1 
C1074: x45+x52-y45_52 <=1 
C1075: x45+x54-y45_54 <=1 
C1076: x45+x55 <=1 
C1077: x45+x58-y45_58 <=1 
C1078: x45+x62 <=1 
C1079: x46+x48 <=1 
C1080: x46+x49-y46_49 <=1 
C1081: x46+x51 <=1 
C1082: x46+x53 <=1 
C1083: x46+x57 <=1 
C1084: x46+x60 <=1 
C1085: x46+x62-y46_62 <=1 
C1086: x47+x48-y47_48 <=1 
C1087: x47+x49-y47_49 <=1 
C1088: x47+x50 <=1 
C1089: x47+x52 <=1 
C1090: x47+x53 <=1 
C1091: x47+x54 <=1 
C1092: x47+x56-y47_56 <=1 
C1093: x47+x58 <=1 
C1094: x47+x60-y47_60 <=1 
C1095: x47+x61-y47_61 <=1 
C1096: x48+x51-y48_51 <=1 
C1097: x48+x52 <=1 
C1098: x48+x53 <=1 
C1099: x48+x55 <=1 
C1100: x48+x56-y48_56 <=1 
C1101: x48+x57-y48_57 <=1 
C1102: x48+x58 <=1 
C1103: x48+x59 <=1 
C1104: x48+x60 <=1 
C1105: x49+x50 <=1 
C1106: x49+x51-y49_51 <=1 
C1107: x49+x52-y49_52 <=1 
C1108: x49+x53 <=1 
C1109: x49+x54 <=1 
C1110: x49+x55 <=1 
C1111: x49+x57 <=1 
C1112: x49+x60-y49_60 <=1 
C1113: x49+x61-y49_61 <=1 
C1114: x49+x62 <=1 
C1115: x50+x54 <=1 
C1116: x50+x55-y50_55 <=1 
C1117: x50+x57-y50_57 <=1 
C1118: x50+x58 <=1 
C1119: x50+x60-y50_60 <=1 
C1120: x50+x61 <=1 
C1121: x51+x52-y51_52 <=1 
C1122: x51+x53 <=1 
C1123: x51+x57 <=1 
C1124: x51+x58 <=1 
C1125: x51+x59 <=1 
C1126: x51+x60-y51_60 <=1 
C1127: x51+x61 <=1 
C1128: x52+x53-y52_53 <=1 
C1129: x52+x54-y52_54 <=1 
C1130: x52+x56 <=1 
C1131: x52+x59-y52_59 <=1 
C1132: x52+x60 <=1 
C1133: x53+x55-y53_55 <=1 
C1134: x53+x57-y53_57 <=1 
C1135: x53+x58-y53_58 <=1 
C1136: x53+x59-y53_59 <=1 
C1137: x53+x61 <=1 
C1138: x54+x56-y54_56 <=1 
C1139: x54+x57 <=1 
C1140: x54+x59-y54_59 <=1 
C1141: x54+x60-y54_60 <=1 
C1142: x54+x61-y54_61 <=1 
C1143: x54+x62-y54_62 <=1 
C1144: x55+x56-y55_56 <=1 
C1145: x55+x59-y55_59 <=1 
C1146: x55+x60 <=1 
C1147: x57+x59-y57_59 <=1 
C1148: x58+x59 <=1 
C1149: x58+x60 <=1 
C1150: x60+x62-y60_62 <=1 
C1151: x61+x62 <=1 

binary
x0
x1
x2
x3
x4
x5
x6
x7
x8
x9
x10
x11
x12
x13
x14
x15
x16
x17
x18
x19
x20
x21
x22
x23
x24
x25
x26
x27
x28
x29
x30
x31
x32
x33
x34
x35
x36
x37
x38
x39
x40
x41
x42
x43
x44
x45
x46
x47
x48
x49
x50
x51
x52
x53
x54
x55
x56
x57
x58
x59
x60
x61
x62
