problem_generation/data/GISP/train/er_n=63_m=1151_p=0.60_SET2_setparam=100.00_alpha=0.50_620.sol
objective value:                                 1358
x2                                                  1 	(obj:100)
x4                                                  1 	(obj:100)
x10                                                 1 	(obj:100)
x16                                                 1 	(obj:100)
x18                                                 1 	(obj:100)
x20                                                 1 	(obj:100)
x25                                                 1 	(obj:100)
x33                                                 1 	(obj:100)
x36                                                 1 	(obj:100)
x53                                                 1 	(obj:100)
x55                                                 1 	(obj:100)
x56                                                 1 	(obj:100)
x59                                                 1 	(obj:100)
x62                                                 1 	(obj:100)
y36_53                                              1 	(obj:-1)
y36_62                                              1 	(obj:-1)
y16_56                                              1 	(obj:-1)
y55_56                                              1 	(obj:-1)
y25_33                                              1 	(obj:-1)
y36_56                                              1 	(obj:-1)
y10_25                                              1 	(obj:-1)
y2_16                                               1 	(obj:-1)
y4_53                                               1 	(obj:-1)
y16_18                                              1 	(obj:-1)
y20_33                                              1 	(obj:-1)
y4_25                                               1 	(obj:-1)
y18_62                                              1 	(obj:-1)
y4_33                                               1 	(obj:-1)
y18_25                                              1 	(obj:-1)
y4_10                                               1 	(obj:-1)
y10_53                                              1 	(obj:-1)
y18_56                                              1 	(obj:-1)
y33_36                                              1 	(obj:-1)
y55_59                                              1 	(obj:-1)
y2_25                                               1 	(obj:-1)
y25_36                                              1 	(obj:-1)
y10_56                                              1 	(obj:-1)
y36_59                                              1 	(obj:-1)
y10_33                                              1 	(obj:-1)
y2_56                                               1 	(obj:-1)
y2_33                                               1 	(obj:-1)
y4_56                                               1 	(obj:-1)
y20_59                                              1 	(obj:-1)
y2_4                                                1 	(obj:-1)
y53_55                                              1 	(obj:-1)
y16_33                                              1 	(obj:-1)
y4_18                                               1 	(obj:-1)
y4_36                                               1 	(obj:-1)
y53_59                                              1 	(obj:-1)
y18_55                                              1 	(obj:-1)
y18_59                                              1 	(obj:-1)
y20_25                                              1 	(obj:-1)
y33_62                                              1 	(obj:-1)
y18_36                                              1 	(obj:-1)
y10_55                                              1 	(obj:-1)
y25_53                                              1 	(obj:-1)
